WARNING: for repeatability, setting FPU to use double precision
============================[ Problem Statistics ]=============================
|                                                                             |
|  Number of variables:            50                                         |
|  Number of clauses:             218                                         |
|  Parse time:                   0.00 s                                       |
|                                                                             |
============================[ Search Statistics ]==============================
| Conflicts |          ORIGINAL         |          LEARNT          | Progress |
|           |    Vars  Clauses Literals |    Limit  Clauses Lit/Cl |          |
===============================================================================
===============================================================================
restarts              : 1
conflicts             : 53             (36153 /sec)
decisions             : 60             (0.00 % random) (40928 /sec)
propagations          : 707            (482265 /sec)
conflict literals     : 178            (20.89 % deleted)
Memory used           : 20.00 MB
CPU time              : 0.001466 s

UNSATISFIABLE
